# Solution for model MIP
# Objective value = -1.9194078481273209e+02
theta -1.9194078481273209e+02
z_w0_k0_m0 8.6222768498587332e-01
z_w0_k0_m1 9.1575013982152609e-01
z_w0_k1_m0 8.6222768498587332e-01
z_w0_k1_m1 9.1575013982152609e-01
z_w0_k2_m0 8.6222768498587332e-01
z_w0_k2_m1 9.1575013982152609e-01
z_w1_k0_m0 8.6222768498587332e-01
z_w1_k0_m1 9.1575013982152609e-01
z_w1_k1_m0 8.0347417750271766e-01
z_w1_k1_m1 7.0287804208555393e-01
z_w1_k2_m0 8.8983289968754753e-01
z_w1_k2_m1 8.2194732392139880e-01
z_w2_k0_m0 8.8205429554602144e-01
z_w2_k0_m1 7.1979447472593849e-01
z_w2_k1_m0 8.8469509516326417e-01
z_w2_k1_m1 7.0287804208555393e-01
z_w2_k2_m0 8.7375812410771170e-01
z_w2_k2_m1 8.2194732392139880e-01
z_w3_k0_m0 8.2843579929362088e-01
z_w3_k0_m1 7.1979447472593849e-01
z_w3_k1_m0 8.0347417750271766e-01
z_w3_k1_m1 7.0287804208555393e-01
z_w3_k2_m0 8.8983289968754764e-01
z_w3_k2_m1 8.2194732392139880e-01
z_w4_k0_m0 8.0126057742570755e-01
z_w4_k0_m1 7.1979447472593849e-01
z_w4_k1_m0 8.6222768498587332e-01
z_w4_k1_m1 9.1575013982152609e-01
z_w4_k2_m0 8.6222768498587332e-01
z_w4_k2_m1 9.1575013982152609e-01
pi_w0_t0_k0 1
pi_w0_t0_k1 1
pi_w0_t0_k2 1
pi_w0_t1_k0 0
pi_w0_t1_k1 0
pi_w0_t1_k2 0
pi_w0_t2_k0 0
pi_w0_t2_k1 0
pi_w0_t2_k2 0
pi_w0_t3_k0 0
pi_w0_t3_k1 0
pi_w0_t3_k2 0
pi_w0_t4_k0 0
pi_w0_t4_k1 0
pi_w0_t4_k2 0
pi_w0_t5_k0 0
pi_w0_t5_k1 0
pi_w0_t5_k2 0
pi_w0_t6_k0 0
pi_w0_t6_k1 0
pi_w0_t6_k2 0
pi_w0_t7_k0 0
pi_w0_t7_k1 0
pi_w0_t7_k2 0
pi_w0_t8_k0 0
pi_w0_t8_k1 0
pi_w0_t8_k2 0
pi_w0_t9_k0 0
pi_w0_t9_k1 0
pi_w0_t9_k2 0
pi_w0_t10_k0 0
pi_w0_t10_k1 0
pi_w0_t10_k2 0
pi_w0_t11_k0 0
pi_w0_t11_k1 0
pi_w0_t11_k2 0
pi_w0_t12_k0 0
pi_w0_t12_k1 0
pi_w0_t12_k2 0
pi_w0_t13_k0 0
pi_w0_t13_k1 0
pi_w0_t13_k2 0
pi_w0_t14_k0 0
pi_w0_t14_k1 0
pi_w0_t14_k2 0
pi_w0_t15_k0 0
pi_w0_t15_k1 0
pi_w0_t15_k2 0
pi_w0_t16_k0 0
pi_w0_t16_k1 0
pi_w0_t16_k2 0
pi_w0_t17_k0 0
pi_w0_t17_k1 0
pi_w0_t17_k2 0
pi_w0_t18_k0 0
pi_w0_t18_k1 0
pi_w0_t18_k2 0
pi_w0_t19_k0 0
pi_w0_t19_k1 0
pi_w0_t19_k2 0
pi_w0_t20_k0 0
pi_w0_t20_k1 0
pi_w0_t20_k2 0
pi_w0_t21_k0 0
pi_w0_t21_k1 0
pi_w0_t21_k2 0
pi_w0_t22_k0 0
pi_w0_t22_k1 0
pi_w0_t22_k2 0
pi_w0_t23_k0 0
pi_w0_t23_k1 0
pi_w0_t23_k2 0
pi_w0_t24_k0 0
pi_w0_t24_k1 0
pi_w0_t24_k2 0
pi_w0_t25_k0 0
pi_w0_t25_k1 0
pi_w0_t25_k2 0
pi_w0_t26_k0 0
pi_w0_t26_k1 0
pi_w0_t26_k2 0
pi_w0_t27_k0 0
pi_w0_t27_k1 0
pi_w0_t27_k2 0
pi_w0_t28_k0 0
pi_w0_t28_k1 0
pi_w0_t28_k2 0
pi_w0_t29_k0 0
pi_w0_t29_k1 0
pi_w0_t29_k2 0
pi_w0_t30_k0 0
pi_w0_t30_k1 0
pi_w0_t30_k2 0
pi_w0_t31_k0 0
pi_w0_t31_k1 0
pi_w0_t31_k2 0
pi_w0_t32_k0 0
pi_w0_t32_k1 0
pi_w0_t32_k2 0
pi_w0_t33_k0 0
pi_w0_t33_k1 0
pi_w0_t33_k2 0
pi_w0_t34_k0 0
pi_w0_t34_k1 0
pi_w0_t34_k2 0
pi_w0_t35_k0 0
pi_w0_t35_k1 0
pi_w0_t35_k2 0
pi_w0_t36_k0 0
pi_w0_t36_k1 0
pi_w0_t36_k2 0
pi_w0_t37_k0 0
pi_w0_t37_k1 0
pi_w0_t37_k2 0
pi_w0_t38_k0 0
pi_w0_t38_k1 0
pi_w0_t38_k2 0
pi_w0_t39_k0 0
pi_w0_t39_k1 0
pi_w0_t39_k2 0
pi_w0_t40_k0 0
pi_w0_t40_k1 0
pi_w0_t40_k2 0
pi_w0_t41_k0 0
pi_w0_t41_k1 0
pi_w0_t41_k2 0
pi_w1_t0_k0 1
pi_w1_t0_k1 0
pi_w1_t0_k2 0
pi_w1_t1_k0 0
pi_w1_t1_k1 0
pi_w1_t1_k2 0
pi_w1_t2_k0 0
pi_w1_t2_k1 0
pi_w1_t2_k2 0
pi_w1_t3_k0 0
pi_w1_t3_k1 0
pi_w1_t3_k2 0
pi_w1_t4_k0 0
pi_w1_t4_k1 0
pi_w1_t4_k2 0
pi_w1_t5_k0 0
pi_w1_t5_k1 0
pi_w1_t5_k2 0
pi_w1_t6_k0 0
pi_w1_t6_k1 0
pi_w1_t6_k2 0
pi_w1_t7_k0 0
pi_w1_t7_k1 0
pi_w1_t7_k2 3.8251825258832700e-01
pi_w1_t8_k0 0
pi_w1_t8_k1 0
pi_w1_t8_k2 0
pi_w1_t9_k0 0
pi_w1_t9_k1 0
pi_w1_t9_k2 0
pi_w1_t10_k0 0
pi_w1_t10_k1 0
pi_w1_t10_k2 0
pi_w1_t11_k0 0
pi_w1_t11_k1 0
pi_w1_t11_k2 0
pi_w1_t12_k0 0
pi_w1_t12_k1 0
pi_w1_t12_k2 0
pi_w1_t13_k0 0
pi_w1_t13_k1 0
pi_w1_t13_k2 0
pi_w1_t14_k0 0
pi_w1_t14_k1 0
pi_w1_t14_k2 0
pi_w1_t15_k0 0
pi_w1_t15_k1 0
pi_w1_t15_k2 0
pi_w1_t16_k0 0
pi_w1_t16_k1 6.5721266589777938e-01
pi_w1_t16_k2 0
pi_w1_t17_k0 0
pi_w1_t17_k1 0
pi_w1_t17_k2 0
pi_w1_t18_k0 0
pi_w1_t18_k1 0
pi_w1_t18_k2 0
pi_w1_t19_k0 0
pi_w1_t19_k1 0
pi_w1_t19_k2 0
pi_w1_t20_k0 0
pi_w1_t20_k1 0
pi_w1_t20_k2 0
pi_w1_t21_k0 0
pi_w1_t21_k1 0
pi_w1_t21_k2 0
pi_w1_t22_k0 0
pi_w1_t22_k1 0
pi_w1_t22_k2 0
pi_w1_t23_k0 0
pi_w1_t23_k1 0
pi_w1_t23_k2 0
pi_w1_t24_k0 0
pi_w1_t24_k1 0
pi_w1_t24_k2 0
pi_w1_t25_k0 0
pi_w1_t25_k1 0
pi_w1_t25_k2 0
pi_w1_t26_k0 0
pi_w1_t26_k1 0
pi_w1_t26_k2 0
pi_w1_t27_k0 0
pi_w1_t27_k1 0
pi_w1_t27_k2 0
pi_w1_t28_k0 0
pi_w1_t28_k1 0
pi_w1_t28_k2 0
pi_w1_t29_k0 0
pi_w1_t29_k1 0
pi_w1_t29_k2 0
pi_w1_t30_k0 0
pi_w1_t30_k1 0
pi_w1_t30_k2 0
pi_w1_t31_k0 0
pi_w1_t31_k1 0
pi_w1_t31_k2 0
pi_w1_t32_k0 0
pi_w1_t32_k1 0
pi_w1_t32_k2 0
pi_w1_t33_k0 0
pi_w1_t33_k1 0
pi_w1_t33_k2 0
pi_w1_t34_k0 0
pi_w1_t34_k1 0
pi_w1_t34_k2 0
pi_w1_t35_k0 0
pi_w1_t35_k1 0
pi_w1_t35_k2 0
pi_w1_t36_k0 0
pi_w1_t36_k1 0
pi_w1_t36_k2 0
pi_w1_t37_k0 0
pi_w1_t37_k1 3.4278733410222062e-01
pi_w1_t37_k2 6.1748174741167294e-01
pi_w1_t38_k0 0
pi_w1_t38_k1 0
pi_w1_t38_k2 0
pi_w1_t39_k0 0
pi_w1_t39_k1 0
pi_w1_t39_k2 0
pi_w1_t40_k0 0
pi_w1_t40_k1 0
pi_w1_t40_k2 0
pi_w1_t41_k0 0
pi_w1_t41_k1 0
pi_w1_t41_k2 0
pi_w2_t0_k0 0
pi_w2_t0_k1 0
pi_w2_t0_k2 5.1346013129371859e-01
pi_w2_t1_k0 0
pi_w2_t1_k1 0
pi_w2_t1_k2 0
pi_w2_t2_k0 0
pi_w2_t2_k1 0
pi_w2_t2_k2 0
pi_w2_t3_k0 0
pi_w2_t3_k1 0
pi_w2_t3_k2 0
pi_w2_t4_k0 0
pi_w2_t4_k1 0
pi_w2_t4_k2 0
pi_w2_t5_k0 0
pi_w2_t5_k1 0
pi_w2_t5_k2 0
pi_w2_t6_k0 0
pi_w2_t6_k1 0
pi_w2_t6_k2 0
pi_w2_t7_k0 0
pi_w2_t7_k1 0
pi_w2_t7_k2 0
pi_w2_t8_k0 0
pi_w2_t8_k1 0
pi_w2_t8_k2 0
pi_w2_t9_k0 0
pi_w2_t9_k1 0
pi_w2_t9_k2 0
pi_w2_t10_k0 0
pi_w2_t10_k1 0
pi_w2_t10_k2 0
pi_w2_t11_k0 0
pi_w2_t11_k1 0
pi_w2_t11_k2 0
pi_w2_t12_k0 0
pi_w2_t12_k1 0
pi_w2_t12_k2 0
pi_w2_t13_k0 0
pi_w2_t13_k1 0
pi_w2_t13_k2 0
pi_w2_t14_k0 0
pi_w2_t14_k1 0
pi_w2_t14_k2 0
pi_w2_t15_k0 0
pi_w2_t15_k1 0
pi_w2_t15_k2 0
pi_w2_t16_k0 0
pi_w2_t16_k1 0
pi_w2_t16_k2 0
pi_w2_t17_k0 0
pi_w2_t17_k1 0
pi_w2_t17_k2 0
pi_w2_t18_k0 0
pi_w2_t18_k1 0
pi_w2_t18_k2 0
pi_w2_t19_k0 0
pi_w2_t19_k1 0
pi_w2_t19_k2 0
pi_w2_t20_k0 0
pi_w2_t20_k1 0
pi_w2_t20_k2 0
pi_w2_t21_k0 0
pi_w2_t21_k1 0
pi_w2_t21_k2 0
pi_w2_t22_k0 0
pi_w2_t22_k1 0
pi_w2_t22_k2 0
pi_w2_t23_k0 0
pi_w2_t23_k1 0
pi_w2_t23_k2 0
pi_w2_t24_k0 0
pi_w2_t24_k1 0
pi_w2_t24_k2 0
pi_w2_t25_k0 0
pi_w2_t25_k1 0
pi_w2_t25_k2 0
pi_w2_t26_k0 0
pi_w2_t26_k1 0
pi_w2_t26_k2 0
pi_w2_t27_k0 0
pi_w2_t27_k1 0
pi_w2_t27_k2 0
pi_w2_t28_k0 0
pi_w2_t28_k1 0
pi_w2_t28_k2 0
pi_w2_t29_k0 0
pi_w2_t29_k1 0
pi_w2_t29_k2 0
pi_w2_t30_k0 0
pi_w2_t30_k1 0
pi_w2_t30_k2 0
pi_w2_t31_k0 0
pi_w2_t31_k1 0
pi_w2_t31_k2 0
pi_w2_t32_k0 0
pi_w2_t32_k1 0
pi_w2_t32_k2 0
pi_w2_t33_k0 0
pi_w2_t33_k1 0
pi_w2_t33_k2 0
pi_w2_t34_k0 0
pi_w2_t34_k1 0
pi_w2_t34_k2 0
pi_w2_t35_k0 0
pi_w2_t35_k1 0
pi_w2_t35_k2 0
pi_w2_t36_k0 0
pi_w2_t36_k1 0
pi_w2_t36_k2 0
pi_w2_t37_k0 0
pi_w2_t37_k1 0
pi_w2_t37_k2 0
pi_w2_t38_k0 0
pi_w2_t38_k1 3.9994780835642452e-01
pi_w2_t38_k2 0
pi_w2_t39_k0 9.9562915550033537e-01
pi_w2_t39_k1 6.0005219164357548e-01
pi_w2_t39_k2 4.8653986870628141e-01
pi_w2_t40_k0 0
pi_w2_t40_k1 0
pi_w2_t40_k2 0
pi_w2_t41_k0 4.3708444996646278e-03
pi_w2_t41_k1 0
pi_w2_t41_k2 0
pi_w3_t0_k0 0
pi_w3_t0_k1 0
pi_w3_t0_k2 0
pi_w3_t1_k0 0
pi_w3_t1_k1 0
pi_w3_t1_k2 0
pi_w3_t2_k0 0
pi_w3_t2_k1 0
pi_w3_t2_k2 0
pi_w3_t3_k0 0
pi_w3_t3_k1 0
pi_w3_t3_k2 0
pi_w3_t4_k0 0
pi_w3_t4_k1 0
pi_w3_t4_k2 0
pi_w3_t5_k0 0
pi_w3_t5_k1 0
pi_w3_t5_k2 0
pi_w3_t6_k0 0
pi_w3_t6_k1 0
pi_w3_t6_k2 0
pi_w3_t7_k0 0
pi_w3_t7_k1 0
pi_w3_t7_k2 3.8251825258832695e-01
pi_w3_t8_k0 0
pi_w3_t8_k1 0
pi_w3_t8_k2 0
pi_w3_t9_k0 0
pi_w3_t9_k1 0
pi_w3_t9_k2 0
pi_w3_t10_k0 0
pi_w3_t10_k1 0
pi_w3_t10_k2 0
pi_w3_t11_k0 0
pi_w3_t11_k1 0
pi_w3_t11_k2 0
pi_w3_t12_k0 0
pi_w3_t12_k1 0
pi_w3_t12_k2 0
pi_w3_t13_k0 0
pi_w3_t13_k1 0
pi_w3_t13_k2 0
pi_w3_t14_k0 0
pi_w3_t14_k1 0
pi_w3_t14_k2 0
pi_w3_t15_k0 0
pi_w3_t15_k1 0
pi_w3_t15_k2 0
pi_w3_t16_k0 3.0542464870398556e-01
pi_w3_t16_k1 6.5721266589777805e-01
pi_w3_t16_k2 0
pi_w3_t17_k0 0
pi_w3_t17_k1 0
pi_w3_t17_k2 0
pi_w3_t18_k0 0
pi_w3_t18_k1 0
pi_w3_t18_k2 0
pi_w3_t19_k0 0
pi_w3_t19_k1 0
pi_w3_t19_k2 0
pi_w3_t20_k0 0
pi_w3_t20_k1 0
pi_w3_t20_k2 0
pi_w3_t21_k0 0
pi_w3_t21_k1 0
pi_w3_t21_k2 0
pi_w3_t22_k0 0
pi_w3_t22_k1 0
pi_w3_t22_k2 0
pi_w3_t23_k0 0
pi_w3_t23_k1 0
pi_w3_t23_k2 0
pi_w3_t24_k0 0
pi_w3_t24_k1 0
pi_w3_t24_k2 0
pi_w3_t25_k0 0
pi_w3_t25_k1 0
pi_w3_t25_k2 0
pi_w3_t26_k0 0
pi_w3_t26_k1 0
pi_w3_t26_k2 0
pi_w3_t27_k0 0
pi_w3_t27_k1 0
pi_w3_t27_k2 0
pi_w3_t28_k0 0
pi_w3_t28_k1 0
pi_w3_t28_k2 0
pi_w3_t29_k0 0
pi_w3_t29_k1 0
pi_w3_t29_k2 0
pi_w3_t30_k0 0
pi_w3_t30_k1 0
pi_w3_t30_k2 0
pi_w3_t31_k0 0
pi_w3_t31_k1 0
pi_w3_t31_k2 0
pi_w3_t32_k0 0
pi_w3_t32_k1 0
pi_w3_t32_k2 0
pi_w3_t33_k0 0
pi_w3_t33_k1 0
pi_w3_t33_k2 0
pi_w3_t34_k0 0
pi_w3_t34_k1 0
pi_w3_t34_k2 0
pi_w3_t35_k0 0
pi_w3_t35_k1 0
pi_w3_t35_k2 0
pi_w3_t36_k0 0
pi_w3_t36_k1 0
pi_w3_t36_k2 0
pi_w3_t37_k0 6.9457535129601444e-01
pi_w3_t37_k1 3.4278733410222195e-01
pi_w3_t37_k2 6.1748174741167305e-01
pi_w3_t38_k0 0
pi_w3_t38_k1 0
pi_w3_t38_k2 0
pi_w3_t39_k0 0
pi_w3_t39_k1 0
pi_w3_t39_k2 0
pi_w3_t40_k0 0
pi_w3_t40_k1 0
pi_w3_t40_k2 0
pi_w3_t41_k0 0
pi_w3_t41_k1 0
pi_w3_t41_k2 0
pi_w4_t0_k0 3.1526503382187737e-01
pi_w4_t0_k1 1
pi_w4_t0_k2 1
pi_w4_t1_k0 0
pi_w4_t1_k1 0
pi_w4_t1_k2 0
pi_w4_t2_k0 0
pi_w4_t2_k1 0
pi_w4_t2_k2 0
pi_w4_t3_k0 0
pi_w4_t3_k1 0
pi_w4_t3_k2 0
pi_w4_t4_k0 0
pi_w4_t4_k1 0
pi_w4_t4_k2 0
pi_w4_t5_k0 0
pi_w4_t5_k1 0
pi_w4_t5_k2 0
pi_w4_t6_k0 0
pi_w4_t6_k1 0
pi_w4_t6_k2 0
pi_w4_t7_k0 0
pi_w4_t7_k1 0
pi_w4_t7_k2 0
pi_w4_t8_k0 0
pi_w4_t8_k1 0
pi_w4_t8_k2 0
pi_w4_t9_k0 0
pi_w4_t9_k1 0
pi_w4_t9_k2 0
pi_w4_t10_k0 0
pi_w4_t10_k1 0
pi_w4_t10_k2 0
pi_w4_t11_k0 0
pi_w4_t11_k1 0
pi_w4_t11_k2 0
pi_w4_t12_k0 0
pi_w4_t12_k1 0
pi_w4_t12_k2 0
pi_w4_t13_k0 0
pi_w4_t13_k1 0
pi_w4_t13_k2 0
pi_w4_t14_k0 0
pi_w4_t14_k1 0
pi_w4_t14_k2 0
pi_w4_t15_k0 6.8473496617812257e-01
pi_w4_t15_k1 0
pi_w4_t15_k2 0
pi_w4_t16_k0 0
pi_w4_t16_k1 0
pi_w4_t16_k2 0
pi_w4_t17_k0 0
pi_w4_t17_k1 0
pi_w4_t17_k2 0
pi_w4_t18_k0 0
pi_w4_t18_k1 0
pi_w4_t18_k2 0
pi_w4_t19_k0 0
pi_w4_t19_k1 0
pi_w4_t19_k2 0
pi_w4_t20_k0 0
pi_w4_t20_k1 0
pi_w4_t20_k2 0
pi_w4_t21_k0 0
pi_w4_t21_k1 0
pi_w4_t21_k2 0
pi_w4_t22_k0 0
pi_w4_t22_k1 0
pi_w4_t22_k2 0
pi_w4_t23_k0 0
pi_w4_t23_k1 0
pi_w4_t23_k2 0
pi_w4_t24_k0 0
pi_w4_t24_k1 0
pi_w4_t24_k2 0
pi_w4_t25_k0 0
pi_w4_t25_k1 0
pi_w4_t25_k2 0
pi_w4_t26_k0 0
pi_w4_t26_k1 0
pi_w4_t26_k2 0
pi_w4_t27_k0 0
pi_w4_t27_k1 0
pi_w4_t27_k2 0
pi_w4_t28_k0 0
pi_w4_t28_k1 0
pi_w4_t28_k2 0
pi_w4_t29_k0 0
pi_w4_t29_k1 0
pi_w4_t29_k2 0
pi_w4_t30_k0 0
pi_w4_t30_k1 0
pi_w4_t30_k2 0
pi_w4_t31_k0 0
pi_w4_t31_k1 0
pi_w4_t31_k2 0
pi_w4_t32_k0 0
pi_w4_t32_k1 0
pi_w4_t32_k2 0
pi_w4_t33_k0 0
pi_w4_t33_k1 0
pi_w4_t33_k2 0
pi_w4_t34_k0 0
pi_w4_t34_k1 0
pi_w4_t34_k2 0
pi_w4_t35_k0 0
pi_w4_t35_k1 0
pi_w4_t35_k2 0
pi_w4_t36_k0 0
pi_w4_t36_k1 0
pi_w4_t36_k2 0
pi_w4_t37_k0 0
pi_w4_t37_k1 0
pi_w4_t37_k2 0
pi_w4_t38_k0 0
pi_w4_t38_k1 0
pi_w4_t38_k2 0
pi_w4_t39_k0 0
pi_w4_t39_k1 0
pi_w4_t39_k2 0
pi_w4_t40_k0 0
pi_w4_t40_k1 0
pi_w4_t40_k2 0
pi_w4_t41_k0 0
pi_w4_t41_k1 0
pi_w4_t41_k2 0
n_w0_t0_k0 0
n_w0_t0_k1 0
n_w0_t0_k2 0
n_w0_t1_k0 0
n_w0_t1_k1 0
n_w0_t1_k2 0
n_w0_t2_k0 0
n_w0_t2_k1 0
n_w0_t2_k2 0
n_w0_t3_k0 0
n_w0_t3_k1 0
n_w0_t3_k2 0
n_w0_t4_k0 0
n_w0_t4_k1 0
n_w0_t4_k2 0
n_w0_t5_k0 0
n_w0_t5_k1 0
n_w0_t5_k2 0
n_w0_t6_k0 0
n_w0_t6_k1 0
n_w0_t6_k2 0
n_w0_t7_k0 0
n_w0_t7_k1 0
n_w0_t7_k2 0
n_w0_t8_k0 0
n_w0_t8_k1 0
n_w0_t8_k2 0
n_w0_t9_k0 0
n_w0_t9_k1 0
n_w0_t9_k2 0
n_w0_t10_k0 0
n_w0_t10_k1 0
n_w0_t10_k2 0
n_w0_t11_k0 0
n_w0_t11_k1 0
n_w0_t11_k2 0
n_w0_t12_k0 0
n_w0_t12_k1 0
n_w0_t12_k2 0
n_w0_t13_k0 0
n_w0_t13_k1 0
n_w0_t13_k2 0
n_w0_t14_k0 0
n_w0_t14_k1 0
n_w0_t14_k2 0
n_w0_t15_k0 0
n_w0_t15_k1 0
n_w0_t15_k2 0
n_w0_t16_k0 0
n_w0_t16_k1 0
n_w0_t16_k2 0
n_w0_t17_k0 0
n_w0_t17_k1 0
n_w0_t17_k2 0
n_w0_t18_k0 0
n_w0_t18_k1 0
n_w0_t18_k2 0
n_w0_t19_k0 0
n_w0_t19_k1 0
n_w0_t19_k2 0
n_w0_t20_k0 0
n_w0_t20_k1 0
n_w0_t20_k2 0
n_w0_t21_k0 0
n_w0_t21_k1 0
n_w0_t21_k2 0
n_w0_t22_k0 0
n_w0_t22_k1 0
n_w0_t22_k2 0
n_w0_t23_k0 0
n_w0_t23_k1 0
n_w0_t23_k2 0
n_w0_t24_k0 0
n_w0_t24_k1 0
n_w0_t24_k2 0
n_w0_t25_k0 0
n_w0_t25_k1 0
n_w0_t25_k2 0
n_w0_t26_k0 0
n_w0_t26_k1 0
n_w0_t26_k2 0
n_w0_t27_k0 0
n_w0_t27_k1 0
n_w0_t27_k2 0
n_w0_t28_k0 0
n_w0_t28_k1 0
n_w0_t28_k2 0
n_w0_t29_k0 0
n_w0_t29_k1 0
n_w0_t29_k2 0
n_w0_t30_k0 0
n_w0_t30_k1 0
n_w0_t30_k2 0
n_w0_t31_k0 0
n_w0_t31_k1 0
n_w0_t31_k2 0
n_w0_t32_k0 0
n_w0_t32_k1 0
n_w0_t32_k2 0
n_w0_t33_k0 0
n_w0_t33_k1 0
n_w0_t33_k2 0
n_w0_t34_k0 0
n_w0_t34_k1 0
n_w0_t34_k2 0
n_w0_t35_k0 0
n_w0_t35_k1 0
n_w0_t35_k2 0
n_w0_t36_k0 0
n_w0_t36_k1 0
n_w0_t36_k2 0
n_w0_t37_k0 0
n_w0_t37_k1 0
n_w0_t37_k2 0
n_w0_t38_k0 0
n_w0_t38_k1 0
n_w0_t38_k2 0
n_w0_t39_k0 0
n_w0_t39_k1 0
n_w0_t39_k2 0
n_w0_t40_k0 0
n_w0_t40_k1 0
n_w0_t40_k2 0
n_w0_t41_k0 0
n_w0_t41_k1 0
n_w0_t41_k2 0
n_w1_t0_k0 0
n_w1_t0_k1 0
n_w1_t0_k2 0
n_w1_t1_k0 0
n_w1_t1_k1 0
n_w1_t1_k2 0
n_w1_t2_k0 0
n_w1_t2_k1 0
n_w1_t2_k2 0
n_w1_t3_k0 0
n_w1_t3_k1 0
n_w1_t3_k2 0
n_w1_t4_k0 0
n_w1_t4_k1 0
n_w1_t4_k2 0
n_w1_t5_k0 0
n_w1_t5_k1 0
n_w1_t5_k2 0
n_w1_t6_k0 0
n_w1_t6_k1 0
n_w1_t6_k2 0
n_w1_t7_k0 0
n_w1_t7_k1 0
n_w1_t7_k2 9.1804380621198476e+00
n_w1_t8_k0 0
n_w1_t8_k1 0
n_w1_t8_k2 0
n_w1_t9_k0 0
n_w1_t9_k1 0
n_w1_t9_k2 0
n_w1_t10_k0 0
n_w1_t10_k1 0
n_w1_t10_k2 0
n_w1_t11_k0 0
n_w1_t11_k1 0
n_w1_t11_k2 0
n_w1_t12_k0 0
n_w1_t12_k1 0
n_w1_t12_k2 0
n_w1_t13_k0 0
n_w1_t13_k1 0
n_w1_t13_k2 0
n_w1_t14_k0 0
n_w1_t14_k1 0
n_w1_t14_k2 0
n_w1_t15_k0 0
n_w1_t15_k1 0
n_w1_t15_k2 0
n_w1_t16_k0 0
n_w1_t16_k1 1.9059167311035601e+01
n_w1_t16_k2 0
n_w1_t17_k0 0
n_w1_t17_k1 0
n_w1_t17_k2 0
n_w1_t18_k0 0
n_w1_t18_k1 0
n_w1_t18_k2 0
n_w1_t19_k0 0
n_w1_t19_k1 0
n_w1_t19_k2 0
n_w1_t20_k0 0
n_w1_t20_k1 0
n_w1_t20_k2 0
n_w1_t21_k0 0
n_w1_t21_k1 0
n_w1_t21_k2 0
n_w1_t22_k0 0
n_w1_t22_k1 0
n_w1_t22_k2 0
n_w1_t23_k0 0
n_w1_t23_k1 0
n_w1_t23_k2 0
n_w1_t24_k0 0
n_w1_t24_k1 0
n_w1_t24_k2 0
n_w1_t25_k0 0
n_w1_t25_k1 0
n_w1_t25_k2 0
n_w1_t26_k0 0
n_w1_t26_k1 0
n_w1_t26_k2 0
n_w1_t27_k0 0
n_w1_t27_k1 0
n_w1_t27_k2 0
n_w1_t28_k0 0
n_w1_t28_k1 0
n_w1_t28_k2 0
n_w1_t29_k0 0
n_w1_t29_k1 0
n_w1_t29_k2 0
n_w1_t30_k0 0
n_w1_t30_k1 0
n_w1_t30_k2 0
n_w1_t31_k0 0
n_w1_t31_k1 0
n_w1_t31_k2 0
n_w1_t32_k0 0
n_w1_t32_k1 0
n_w1_t32_k2 0
n_w1_t33_k0 0
n_w1_t33_k1 0
n_w1_t33_k2 0
n_w1_t34_k0 0
n_w1_t34_k1 0
n_w1_t34_k2 0
n_w1_t35_k0 0
n_w1_t35_k1 0
n_w1_t35_k2 0
n_w1_t36_k0 0
n_w1_t36_k1 0
n_w1_t36_k2 0
n_w1_t37_k0 0
n_w1_t37_k1 9.9408326889643988e+00
n_w1_t37_k2 1.4819561937880151e+01
n_w1_t38_k0 0
n_w1_t38_k1 0
n_w1_t38_k2 0
n_w1_t39_k0 0
n_w1_t39_k1 0
n_w1_t39_k2 0
n_w1_t40_k0 0
n_w1_t40_k1 0
n_w1_t40_k2 0
n_w1_t41_k0 0
n_w1_t41_k1 0
n_w1_t41_k2 0
n_w2_t0_k0 0
n_w2_t0_k1 0
n_w2_t0_k2 8.2153621006994975e+00
n_w2_t1_k0 0
n_w2_t1_k1 0
n_w2_t1_k2 0
n_w2_t2_k0 0
n_w2_t2_k1 0
n_w2_t2_k2 0
n_w2_t3_k0 0
n_w2_t3_k1 0
n_w2_t3_k2 0
n_w2_t4_k0 0
n_w2_t4_k1 0
n_w2_t4_k2 0
n_w2_t5_k0 0
n_w2_t5_k1 0
n_w2_t5_k2 0
n_w2_t6_k0 0
n_w2_t6_k1 0
n_w2_t6_k2 0
n_w2_t7_k0 0
n_w2_t7_k1 0
n_w2_t7_k2 0
n_w2_t8_k0 0
n_w2_t8_k1 0
n_w2_t8_k2 0
n_w2_t9_k0 0
n_w2_t9_k1 0
n_w2_t9_k2 0
n_w2_t10_k0 0
n_w2_t10_k1 0
n_w2_t10_k2 0
n_w2_t11_k0 0
n_w2_t11_k1 0
n_w2_t11_k2 0
n_w2_t12_k0 0
n_w2_t12_k1 0
n_w2_t12_k2 0
n_w2_t13_k0 0
n_w2_t13_k1 0
n_w2_t13_k2 0
n_w2_t14_k0 0
n_w2_t14_k1 0
n_w2_t14_k2 0
n_w2_t15_k0 0
n_w2_t15_k1 0
n_w2_t15_k2 0
n_w2_t16_k0 0
n_w2_t16_k1 0
n_w2_t16_k2 0
n_w2_t17_k0 0
n_w2_t17_k1 0
n_w2_t17_k2 0
n_w2_t18_k0 0
n_w2_t18_k1 0
n_w2_t18_k2 0
n_w2_t19_k0 0
n_w2_t19_k1 0
n_w2_t19_k2 0
n_w2_t20_k0 0
n_w2_t20_k1 0
n_w2_t20_k2 0
n_w2_t21_k0 0
n_w2_t21_k1 0
n_w2_t21_k2 0
n_w2_t22_k0 0
n_w2_t22_k1 0
n_w2_t22_k2 0
n_w2_t23_k0 0
n_w2_t23_k1 0
n_w2_t23_k2 0
n_w2_t24_k0 0
n_w2_t24_k1 0
n_w2_t24_k2 0
n_w2_t25_k0 0
n_w2_t25_k1 0
n_w2_t25_k2 0
n_w2_t26_k0 0
n_w2_t26_k1 0
n_w2_t26_k2 0
n_w2_t27_k0 0
n_w2_t27_k1 0
n_w2_t27_k2 0
n_w2_t28_k0 0
n_w2_t28_k1 0
n_w2_t28_k2 0
n_w2_t29_k0 0
n_w2_t29_k1 0
n_w2_t29_k2 0
n_w2_t30_k0 0
n_w2_t30_k1 0
n_w2_t30_k2 0
n_w2_t31_k0 0
n_w2_t31_k1 0
n_w2_t31_k2 0
n_w2_t32_k0 0
n_w2_t32_k1 0
n_w2_t32_k2 0
n_w2_t33_k0 0
n_w2_t33_k1 0
n_w2_t33_k2 0
n_w2_t34_k0 0
n_w2_t34_k1 0
n_w2_t34_k2 0
n_w2_t35_k0 0
n_w2_t35_k1 0
n_w2_t35_k2 0
n_w2_t36_k0 0
n_w2_t36_k1 0
n_w2_t36_k2 0
n_w2_t37_k0 0
n_w2_t37_k1 0
n_w2_t37_k2 0
n_w2_t38_k0 0
n_w2_t38_k1 1.0798590825623462e+01
n_w2_t38_k2 0
n_w2_t39_k0 9.9562915550033537e+00
n_w2_t39_k1 1.6201409174376536e+01
n_w2_t39_k2 7.7846378993005025e+00
n_w2_t40_k0 0
n_w2_t40_k1 0
n_w2_t40_k2 0
n_w2_t41_k0 4.3708444996646278e-02
n_w2_t41_k1 0
n_w2_t41_k2 0
n_w3_t0_k0 0
n_w3_t0_k1 0
n_w3_t0_k2 0
n_w3_t1_k0 0
n_w3_t1_k1 0
n_w3_t1_k2 0
n_w3_t2_k0 0
n_w3_t2_k1 0
n_w3_t2_k2 0
n_w3_t3_k0 0
n_w3_t3_k1 0
n_w3_t3_k2 0
n_w3_t4_k0 0
n_w3_t4_k1 0
n_w3_t4_k2 0
n_w3_t5_k0 0
n_w3_t5_k1 0
n_w3_t5_k2 0
n_w3_t6_k0 0
n_w3_t6_k1 0
n_w3_t6_k2 0
n_w3_t7_k0 0
n_w3_t7_k1 0
n_w3_t7_k2 9.1804380621198440e+00
n_w3_t8_k0 0
n_w3_t8_k1 0
n_w3_t8_k2 0
n_w3_t9_k0 0
n_w3_t9_k1 0
n_w3_t9_k2 0
n_w3_t10_k0 0
n_w3_t10_k1 0
n_w3_t10_k2 0
n_w3_t11_k0 0
n_w3_t11_k1 0
n_w3_t11_k2 0
n_w3_t12_k0 0
n_w3_t12_k1 0
n_w3_t12_k2 0
n_w3_t13_k0 0
n_w3_t13_k1 0
n_w3_t13_k2 0
n_w3_t14_k0 0
n_w3_t14_k1 0
n_w3_t14_k2 0
n_w3_t15_k0 0
n_w3_t15_k1 0
n_w3_t15_k2 0
n_w3_t16_k0 5.0700491684861603e+01
n_w3_t16_k1 1.2289876852288450e+02
n_w3_t16_k2 0
n_w3_t17_k0 0
n_w3_t17_k1 0
n_w3_t17_k2 0
n_w3_t18_k0 0
n_w3_t18_k1 0
n_w3_t18_k2 0
n_w3_t19_k0 0
n_w3_t19_k1 0
n_w3_t19_k2 0
n_w3_t20_k0 0
n_w3_t20_k1 0
n_w3_t20_k2 0
n_w3_t21_k0 0
n_w3_t21_k1 0
n_w3_t21_k2 0
n_w3_t22_k0 0
n_w3_t22_k1 0
n_w3_t22_k2 0
n_w3_t23_k0 0
n_w3_t23_k1 0
n_w3_t23_k2 0
n_w3_t24_k0 0
n_w3_t24_k1 0
n_w3_t24_k2 0
n_w3_t25_k0 0
n_w3_t25_k1 0
n_w3_t25_k2 0
n_w3_t26_k0 0
n_w3_t26_k1 0
n_w3_t26_k2 0
n_w3_t27_k0 0
n_w3_t27_k1 0
n_w3_t27_k2 0
n_w3_t28_k0 0
n_w3_t28_k1 0
n_w3_t28_k2 0
n_w3_t29_k0 0
n_w3_t29_k1 0
n_w3_t29_k2 0
n_w3_t30_k0 0
n_w3_t30_k1 0
n_w3_t30_k2 0
n_w3_t31_k0 0
n_w3_t31_k1 0
n_w3_t31_k2 0
n_w3_t32_k0 0
n_w3_t32_k1 0
n_w3_t32_k2 0
n_w3_t33_k0 0
n_w3_t33_k1 0
n_w3_t33_k2 0
n_w3_t34_k0 0
n_w3_t34_k1 0
n_w3_t34_k2 0
n_w3_t35_k0 0
n_w3_t35_k1 0
n_w3_t35_k2 0
n_w3_t36_k0 0
n_w3_t36_k1 0
n_w3_t36_k2 0
n_w3_t37_k0 1.1529950831513840e+02
n_w3_t37_k1 6.4101231477115505e+01
n_w3_t37_k2 1.4819561937880154e+01
n_w3_t38_k0 0
n_w3_t38_k1 0
n_w3_t38_k2 0
n_w3_t39_k0 0
n_w3_t39_k1 0
n_w3_t39_k2 0
n_w3_t40_k0 0
n_w3_t40_k1 0
n_w3_t40_k2 0
n_w3_t41_k0 0
n_w3_t41_k1 0
n_w3_t41_k2 0
n_w4_t0_k0 4.9811875343856627e+01
n_w4_t0_k1 0
n_w4_t0_k2 0
n_w4_t1_k0 0
n_w4_t1_k1 0
n_w4_t1_k2 0
n_w4_t2_k0 0
n_w4_t2_k1 0
n_w4_t2_k2 0
n_w4_t3_k0 0
n_w4_t3_k1 0
n_w4_t3_k2 0
n_w4_t4_k0 0
n_w4_t4_k1 0
n_w4_t4_k2 0
n_w4_t5_k0 0
n_w4_t5_k1 0
n_w4_t5_k2 0
n_w4_t6_k0 0
n_w4_t6_k1 0
n_w4_t6_k2 0
n_w4_t7_k0 0
n_w4_t7_k1 0
n_w4_t7_k2 0
n_w4_t8_k0 0
n_w4_t8_k1 0
n_w4_t8_k2 0
n_w4_t9_k0 0
n_w4_t9_k1 0
n_w4_t9_k2 0
n_w4_t10_k0 0
n_w4_t10_k1 0
n_w4_t10_k2 0
n_w4_t11_k0 0
n_w4_t11_k1 0
n_w4_t11_k2 0
n_w4_t12_k0 0
n_w4_t12_k1 0
n_w4_t12_k2 0
n_w4_t13_k0 0
n_w4_t13_k1 0
n_w4_t13_k2 0
n_w4_t14_k0 0
n_w4_t14_k1 0
n_w4_t14_k2 0
n_w4_t15_k0 1.0818812465614337e+02
n_w4_t15_k1 0
n_w4_t15_k2 0
n_w4_t16_k0 0
n_w4_t16_k1 0
n_w4_t16_k2 0
n_w4_t17_k0 0
n_w4_t17_k1 0
n_w4_t17_k2 0
n_w4_t18_k0 0
n_w4_t18_k1 0
n_w4_t18_k2 0
n_w4_t19_k0 0
n_w4_t19_k1 0
n_w4_t19_k2 0
n_w4_t20_k0 0
n_w4_t20_k1 0
n_w4_t20_k2 0
n_w4_t21_k0 0
n_w4_t21_k1 0
n_w4_t21_k2 0
n_w4_t22_k0 0
n_w4_t22_k1 0
n_w4_t22_k2 0
n_w4_t23_k0 0
n_w4_t23_k1 0
n_w4_t23_k2 0
n_w4_t24_k0 0
n_w4_t24_k1 0
n_w4_t24_k2 0
n_w4_t25_k0 0
n_w4_t25_k1 0
n_w4_t25_k2 0
n_w4_t26_k0 0
n_w4_t26_k1 0
n_w4_t26_k2 0
n_w4_t27_k0 0
n_w4_t27_k1 0
n_w4_t27_k2 0
n_w4_t28_k0 0
n_w4_t28_k1 0
n_w4_t28_k2 0
n_w4_t29_k0 0
n_w4_t29_k1 0
n_w4_t29_k2 0
n_w4_t30_k0 0
n_w4_t30_k1 0
n_w4_t30_k2 0
n_w4_t31_k0 0
n_w4_t31_k1 0
n_w4_t31_k2 0
n_w4_t32_k0 0
n_w4_t32_k1 0
n_w4_t32_k2 0
n_w4_t33_k0 0
n_w4_t33_k1 0
n_w4_t33_k2 0
n_w4_t34_k0 0
n_w4_t34_k1 0
n_w4_t34_k2 0
n_w4_t35_k0 0
n_w4_t35_k1 0
n_w4_t35_k2 0
n_w4_t36_k0 0
n_w4_t36_k1 0
n_w4_t36_k2 0
n_w4_t37_k0 0
n_w4_t37_k1 0
n_w4_t37_k2 0
n_w4_t38_k0 0
n_w4_t38_k1 0
n_w4_t38_k2 0
n_w4_t39_k0 0
n_w4_t39_k1 0
n_w4_t39_k2 0
n_w4_t40_k0 0
n_w4_t40_k1 0
n_w4_t40_k2 0
n_w4_t41_k0 0
n_w4_t41_k1 0
n_w4_t41_k2 0
o_w0_r0 0
o_w0_r1 0
o_w0_r2 0
o_w0_r3 0
o_w0_r4 0
o_w0_r5 0
o_w1_r0 0
o_w1_r1 0
o_w1_r2 0
o_w1_r3 0
o_w1_r4 0
o_w1_r5 0
o_w2_r0 0
o_w2_r1 0
o_w2_r2 0
o_w2_r3 0
o_w2_r4 0
o_w2_r5 0
o_w3_r0 0
o_w3_r1 0
o_w3_r2 0
o_w3_r3 0
o_w3_r4 0
o_w3_r5 0
o_w4_r0 0
o_w4_r1 0
o_w4_r2 0
o_w4_r3 0
o_w4_r4 0
o_w4_r5 0
y_w0_r0 0
y_w0_r1 0
y_w0_r2 0
y_w0_r3 0
y_w0_r4 0
y_w0_r5 0
y_w1_r0 1.8360876124239695e-01
y_w1_r1 0
y_w1_r2 0.265
y_w1_r3 6.0836350434507497e-02
y_w1_r4 1.1065545943909129e-01
y_w1_r5 0
y_w2_r0 1.6430724201398994e-01
y_w2_r1 0
y_w2_r2 2.2370464727151926e-01
y_w2_r3 2.6532164190721037e-02
y_w2_r4 8.5712976335051483e-02
y_w2_r5 1.4479265195567589e-01
y_w3_r0 1.8360876124239689e-01
y_w3_r1 0
y_w3_r2 1.885
y_w3_r3 4.7719975855069791e-01
y_w3_r4 9.2883727762090962e-01
y_w3_r5 0
y_w4_r0 9.9623750687713253e-01
y_w4_r1 0
y_w4_r2 5.4094062328071690e-01
y_w4_r3 2.6581848809863234e-01
y_w4_r4 0
y_w4_r5 0
p_w0 0
s_w0 0
p_w1 1.7290913655858020e+00
s_w1 1.7290913655858020e+00
p_w2 1.9613634798546891e+00
s_w2 2.3227211426888705e-01
p_w3 8.2709086344141980e+00
s_w3 8.0386365201453103e+00
p_w4 8.0386365201453103e+00
s_w4 0
